DIMENSION: 14
EDGE_WEIGHT_TYPE: EXPLICIT
EDGE_WEIGHT_FORMAT: FULL_MATRIX
EDGE_WEIGHT_SECTION:
32767 17 32767 32767 32767 51 8 8 32767 3 32767 70 32767 9 
17 32767 32767 32767 32767 32767 30 32767 30 32767 32767 82 32767 32767 
32767 32767 32767 73 32767 32 84 32767 86 78 23 32767 32767 68 
32767 32767 73 32767 97 32767 32767 32767 32767 32767 56 32767 32767 32767 
32767 32767 32767 97 32767 32767 32767 32767 78 32767 61 55 75 5 
51 32767 32 32767 32767 32767 32767 73 32767 32767 14 28 24 32767 
8 30 84 32767 32767 32767 32767 32767 32767 63 32767 32767 76 32767 
8 32767 32767 32767 32767 73 32767 32767 32767 32767 32767 32767 32767 32767 
32767 30 86 32767 78 32767 32767 32767 32767 18 32767 32767 32767 32767 
3 32767 78 32767 32767 32767 63 32767 18 32767 32767 32767 32767 32767 
32767 32767 23 56 61 14 32767 32767 32767 32767 32767 32767 32767 32767 
70 82 32767 32767 55 28 32767 32767 32767 32767 32767 32767 32767 32767 
32767 32767 32767 32767 75 24 76 32767 32767 32767 32767 32767 32767 29 
9 32767 68 32767 5 32767 32767 32767 32767 32767 32767 32767 29 32767 
EOF